100 8
618 431
897 93
720 415
556 542
554 784
202 684
397 432
678 439
493 402
318 605
808 171
295 128
837 745
946 637
647 809
565 697
226 224
389 785
653 145
472 603
419 569
756 298
335 753
472 422
791 660
717 693
173 574
742 746
629 564
812 198
651 540
845 28
672 75
734 655
772 693
883 36
622 418
318 729
842 102
559 778
904 135
210 116
634 458
687 153
622 528
190 183
741 481
777 698
487 399
525 158
384 604
719 573
780 441
332 472
180 605
947 568
360 480
764 547
638 585
779 522
913 87
851 486
316 623
149 94
896 36
818 779
781 180
269 498
773 189
846 587
698 634
775 11
564 480
508 397
892 115
739 547
779 270
387 631
721 306
286 709
797 491
724 515
588 781
485 825
186 224
733 178
453 451
160 444
854 545
799 677
825 568
895 191
541 689
591 703
879 653
539 725
687 112
228 703
334 679
703 589
